NAME: data/tsp_10.tsp
TYPE: TSP
COMMENT:by Elliott vanwormhoudt 
DIMENSION: 10
EDGE_WEIGH_TYPE: "EXPLICIT"
EDGE_WEIGHT_FORMAT: "FULL_MATRIX"


EDGE_WEIGHT_SECTION
    0    25    13    36    88    62    47    28    45    44 
   25     0    22    26    27    62    26    37    11    76 
   13    22     0    41    31    14    75    76    36    57 
   36    26    41     0    88    55    32    41    37    72 
   88    27    31    88     0    71    80    71    89    10 
   62    62    14    55    71     0    49    80    39    35 
   47    26    75    32    80    49     0    69    60    75 
   28    37    76    41    71    80    69     0    96    26 
   45    11    36    37    89    39    60    96     0    18 
   44    76    57    72    10    35    75    26    18     0 
